
Gurobi 6.0.3 (win64) logging started 02/14/16 10:34:02


Gurobi 6.0.3 (win64) logging started 02/14/16 10:35:08


Gurobi 6.0.3 (win64) logging started 02/14/16 10:35:59


Gurobi 6.0.3 (win64) logging started 02/14/16 10:48:30


Gurobi 6.0.3 (win64) logging started 02/14/16 10:49:46


Gurobi 6.0.3 (win64) logging started 02/14/16 11:10:51


Gurobi 6.0.3 (win64) logging started 02/14/16 11:14:56


Gurobi 6.0.3 (win64) logging started 02/14/16 11:40:31


Gurobi 6.0.3 (win64) logging started 02/14/16 11:42:07


Gurobi 6.0.3 (win64) logging started 02/14/16 12:11:16


Gurobi 6.0.3 (win64) logging started 02/14/16 15:44:06


Gurobi 6.0.3 (win64) logging started 02/14/16 16:16:30


Gurobi 6.0.3 (win64) logging started 02/14/16 16:38:29


Gurobi 6.0.3 (win64) logging started 02/14/16 16:53:56


Gurobi 6.0.3 (win64) logging started 02/14/16 16:54:59


Gurobi 6.0.3 (win64) logging started 02/14/16 16:57:28


Gurobi 6.0.3 (win64) logging started 02/14/16 17:00:35


Gurobi 6.0.3 (win64) logging started 02/14/16 17:03:55


Gurobi 6.0.3 (win64) logging started 02/14/16 17:05:18


Gurobi 6.0.3 (win64) logging started 02/14/16 17:06:39


Gurobi 6.0.3 (win64) logging started 02/14/16 17:54:11


Gurobi 6.0.3 (win64) logging started 02/14/16 17:54:36


Gurobi 6.0.3 (win64) logging started 02/14/16 18:00:07


Gurobi 6.0.3 (win64) logging started 02/15/16 09:45:45


Gurobi 6.0.3 (win64) logging started 02/15/16 10:49:27


Gurobi 6.0.3 (win64) logging started 02/15/16 10:52:17


Gurobi 6.0.3 (win64) logging started 02/15/16 10:53:34


Gurobi 6.0.3 (win64) logging started 02/15/16 10:56:53


Gurobi 6.0.3 (win64) logging started 02/15/16 10:56:59


Gurobi 6.0.3 (win64) logging started 02/15/16 10:59:14

